
Log started (V12.10.0.0) Fri Apr  2 17:38:03 2021


Problem 'asset.lp' read.
Read time = 0.01 sec. (0.29 ticks)
New value for default parallel thread count: 1
New value for time limit in seconds: 300
Version identifier: 12.10.0.0 | 2019-11-26 | 843d4de
CPXPARAM_Threads                                 1
CPXPARAM_TimeLimit                               300
Found incumbent of value -0.898916 after 0.00 sec. (0.14 ticks)
Tried aggregator 3 times.
MIP Presolve eliminated 859 rows and 725 columns.
MIP Presolve modified 3052 coefficients.
Aggregator did 860 substitutions.
Reduced MIP has 979 rows, 1044 columns, and 4653 nonzeros.
Reduced MIP has 888 binaries, 118 generals, 0 SOSs, and 0 indicators.
Presolve time = 0.02 sec. (11.44 ticks)
Probing fixed 297 vars, tightened 47 bounds.
Probing time = 0.01 sec. (4.17 ticks)
Cover probing fixed 0 vars, tightened 151 bounds.
Tried aggregator 2 times.
MIP Presolve eliminated 401 rows and 398 columns.
MIP Presolve modified 90 coefficients.
Aggregator did 1 substitutions.
Reduced MIP has 577 rows, 644 columns, and 2452 nonzeros.
Reduced MIP has 537 binaries, 69 generals, 0 SOSs, and 0 indicators.
Presolve time = 0.01 sec. (4.53 ticks)
Probing time = 0.00 sec. (2.33 ticks)
Tried aggregator 1 time.
Detecting symmetries...
MIP Presolve modified 98 coefficients.
Reduced MIP has 577 rows, 644 columns, and 2452 nonzeros.
Reduced MIP has 537 binaries, 69 generals, 0 SOSs, and 0 indicators.
Presolve time = 0.00 sec. (1.74 ticks)
Probing time = 0.00 sec. (2.32 ticks)
Clique table members: 2502.
MIP emphasis: balance optimality and feasibility.
MIP search method: dynamic search.
Parallel mode: none, using 1 thread.
Root relaxation solution time = 0.01 sec. (5.46 ticks)

        Nodes                                         Cuts/
   Node  Left     Objective  IInf  Best Integer    Best Bound    ItCnt     Gap

*     0+    0                           -0.8989      539.8984              --- 
      0     0      324.5245   147       -0.8989      324.5245      397     --- 
      0     0      319.7753   147       -0.8989     Cuts: 244      574     --- 
      0     0      315.3628   147       -0.8989     Cuts: 230      777     --- 
      0     0      314.0707   147       -0.8989     Cuts: 176      929     --- 
      0     0      312.9611   147       -0.8989     Cuts: 136     1031     --- 
      0     0      312.7336   147       -0.8989     Cuts: 130     1080     --- 
Detecting symmetries...
      0     0      311.8855   147       -0.8989     Cuts: 123     1161     --- 
      0     0      311.7107   147       -0.8989      Cuts: 75     1209     --- 
      0     0      311.1358   147       -0.8989      Cuts: 45     1296     --- 
      0     0      310.8799   147       -0.8989      Cuts: 88     1375     --- 
      0     0      310.8606   147       -0.8989     Cuts: 104     1427     --- 
      0     0      310.8400   147       -0.8989      Cuts: 40     1457     --- 
      0     0      310.7685   147       -0.8989      Cuts: 67     1489     --- 
      0     0      310.7176   147       -0.8989      Cuts: 71     1515     --- 
      0     0      310.6790   147       -0.8989      Cuts: 52     1548     --- 
*     0+    0                          211.5489      310.6790            46.86%
*     0+    0                          211.5499      310.6790            46.86%
*     0+    0                          211.5499      310.6790            46.86%
*     0+    0                          211.5904      310.6790            46.83%
      0     0        cutoff            211.5904      310.6790     1548   46.83%
Detecting symmetries...
      0     2      310.6790   207      211.5904      310.6729     1548   46.83%
Elapsed time = 0.28 sec. (227.91 ticks, tree = 0.01 MB, solutions = 4)
*    30+   30                          224.3676      310.4856            38.38%
*    60+   43                          229.3958      310.4856            35.35%
*    90+   59                          236.0683      310.4280            31.50%
*   130+   87                          247.5896      310.4280            25.38%
*   130+   87                          247.5897      310.4280            25.38%
    155   109      280.4649   101      247.5897      310.2592     7064   25.31%
*   230+  163                          256.1579      309.9433            21.00%
    313   234      288.3941    97      256.1579      309.8595    13011   20.96%
*   330+  228                          268.5576      309.8595            15.38%
*   340+  238                          268.5577      309.8595            15.38%
*   347   244      integral     0      268.5579      309.8595    13341   15.38%
*   447+  325                          268.5580      309.4745            15.24%
    508   377      296.6615   145      268.5580      309.1469    19008   15.11%
    646   485      274.6540    93      268.5580      308.3701    24588   14.82%
    801   602      293.1342   128      268.5580      307.9333    30949   14.66%
    930   705      286.4241    87      268.5580      307.9245    36636   14.66%

Performing restart 1

Repeating presolve.
Tried aggregator 2 times.
MIP Presolve modified 448 coefficients.
Aggregator did 5 substitutions.
Reduced MIP has 572 rows, 639 columns, and 2104 nonzeros.
Reduced MIP has 532 binaries, 69 generals, 0 SOSs, and 0 indicators.
Presolve time = 0.00 sec. (2.68 ticks)
Tried aggregator 1 time.
Reduced MIP has 572 rows, 639 columns, and 2104 nonzeros.
Reduced MIP has 532 binaries, 69 generals, 0 SOSs, and 0 indicators.
Presolve time = 0.00 sec. (1.62 ticks)
Represolve time = 0.02 sec. (12.84 ticks)
   1062     0      300.7816   161      268.5580     Cuts: 204    44207   12.00%
   1062     0      298.7407   161      268.5580     Cuts: 143    44321   11.24%
   1062     0      296.0559   161      268.5580     Cuts: 135    44537   10.24%
   1062     0      293.9136   161      268.5580     Cuts: 133    44694    9.44%
   1062     0      292.8148   161      268.5580      Cuts: 78    44845    9.03%
   1062     0      292.2350   161      268.5580      Cuts: 93    44945    8.82%
   1062     0      292.1628   161      268.5580      Cuts: 54    45057    8.79%
   1062     0      291.8903   161      268.5580      Cuts: 55    45158    8.69%
   1062     0      291.6206   161      268.5580      Cuts: 93    45284    8.59%
   1062     0      291.5179   161      268.5580      Cuts: 70    45368    8.55%
   1062     0      291.3946   161      268.5580      Cuts: 41    45467    8.50%
   1062     0      291.3207   161      268.5580      Cuts: 35    45533    8.48%
   1062     0      291.0198   161      268.5580      Cuts: 60    45651    8.36%
   1062     0      290.9486   161      268.5580      Cuts: 30    45703    8.34%
   1062     0      290.7776   161      268.5580      Cuts: 44    45773    8.27%
   1062     0      290.3465   161      268.5580      Cuts: 58    45890    8.11%
   1062     0      290.1633   161      268.5580      Cuts: 65    45979    8.04%
   1062     0      289.9338   161      268.5580      Cuts: 57    46032    7.96%
   1062     0      289.8297   161      268.5580      Cuts: 36    46094    7.92%
   1062     0      289.8173   161      268.5580      Cuts: 21    46136    7.92%
   1062     0      289.8101   161      268.5580      Cuts: 39    46169    7.91%
   1062     0      289.8071   161      268.5580      Cuts: 23    46193    7.91%
   1062     0      289.7833   161      268.5580      Cuts: 14    46248    7.90%
   1062     2      289.7833   167      268.5580      289.7222    46248    7.88%
   1068     8      284.1184   101      268.5580      288.9730    46969    7.60%
   1083    19      276.1281    70      268.5580      288.9730    47772    7.60%
   1328   169      275.9752   102      268.5580      281.2175    57278    4.71%
Elapsed time = 4.87 sec. (4664.76 ticks, tree = 0.09 MB, solutions = 14)
   1655   356      269.4426    89      268.5580      279.9220    70271    4.23%
*  1802+  335                          270.9184      278.8886             2.94%
*  1812+  341                          270.9185      278.8886             2.94%
*  1912+  337                          270.9185      277.5095             2.43%
   2022   324      274.7798    50      270.9185      276.6596    83779    2.12%
*  2182+  328                          270.9363      275.7652             1.78%
*  2188   332      integral     0      270.9364      275.7652    89192    1.78%
*  2252+  323                          271.1376      275.5343             1.62%
*  2252+  323                          271.1377      275.5343             1.62%
*  2272+  328                          271.1385      275.4609             1.59%
*  2272+  328                          271.1388      275.4609             1.59%

GUB cover cuts applied:  10
Clique cuts applied:  52
Cover cuts applied:  4
Implied bound cuts applied:  45
Flow cuts applied:  11
Mixed integer rounding cuts applied:  74
Zero-half cuts applied:  34
Lift and project cuts applied:  13
Gomory fractional cuts applied:  6

Root node processing (before b&c):
  Real time             =    0.28 sec. (228.37 ticks)
Sequential b&c:
  Real time             =    7.87 sec. (7703.94 ticks)
                          ------------
Total (root+branch&cut) =    8.14 sec. (7932.31 ticks)

Solution pool: 24 solutions saved.

MIP - Integer optimal, tolerance (0.0001/1e-06):  Objective =  2.7113883870e+02
Current MIP best bound =  2.7116050879e+02 (gap = 0.0216701, 0.01%)
Solution time =    8.15 sec.  Iterations = 101781  Nodes = 2908 (66)
Deterministic time = 7932.32 ticks  (973.87 ticks/sec)


Incumbent solution
Variable Name           Solution Value
F                           295.000000
f1                            0.921161
f2                           22.940000
y4                            1.000000
y57                           1.000000
y110                          1.000000
y184                          1.000000
y190                          1.000000
y246                          1.000000
y216                          1.000000
y252                          1.000000
y34                           1.000000
y201                          1.000000
y250                          1.000000
y114                          1.000000
y96                           1.000000
y229                          1.000000
y117                          1.000000
y53                           1.000000
s4                            6.538603
s7                            6.000000
s9                            6.000000
s10                           6.000000
s13                           6.000000
s42                           6.000000
s57                           6.879891
s61                           6.000000
s62                           6.000000
s71                           6.000000
s79                           6.000000
s82                           6.000000
s85                           6.000000
s86                           6.000000
s89                           6.000000
s93                           6.000000
s101                          6.000000
s113                          6.000000
s118                          6.000000
s120                          6.000000
s121                          6.000000
s139                          6.000000
s150                          6.000000
s159                          6.000000
s165                          6.000000
s174                          6.000000
s182                          6.000000
s186                          6.000000
s191                          6.000000
s200                          6.000000
s205                          6.000000
s206                          6.000000
s217                          6.000000
s237                          6.000000
s240                          6.000000
s247                          6.000000
s251                          6.000000
s274                          6.000000
s110                          7.062538
s273                          6.090000
s154                          6.110000
s152                          6.160000
s184                          7.034149
s190                          7.045750
s172                          6.220000
s246                          6.644632
s216                          6.977906
s126                          6.550000
s252                          7.133443
s26                           6.600000
s91                           6.620000
s289                          6.630000
s34                           7.430674
s201                          6.722276
s160                          6.710000
s250                          7.282071
s83                           6.740000
s55                           6.750000
s114                          7.459642
s96                           6.862356
s119                          6.830000
s63                           6.840000
s229                          7.755609
s87                           6.870000
s117                          7.820637
s53                           7.835536
s125                          7.040000
x199x246x1                    1.000000
x171x201x1                    2.000000
x226x184x1                    1.000000
x262x184x1                    1.000000
x41x96x1                      2.000000
x77x252x1                     1.000000
x77x34x1                      1.000000
x262x190x2                    1.000000
x43x110x2                     1.000000
x43x246x2                     1.000000
x271x34x2                     1.000000
x5x110x2                      1.000000
x243x114x2                    2.000000
x185x57x2                     2.000000
x221x4x3                      2.000000
x155x252x3                    1.000000
x155x250x3                    1.000000
x226x216x3                    1.000000
x5x250x3                      1.000000
x64x190x3                     1.000000
x64x216x3                     1.000000
x4x117x3                      1.000000
x4x53x3                       1.000000
x57x0x2                       2.000000
x110x0x2                      2.000000
x184x0x1                      2.000000
x190x0x2                      1.000000
x190x0x3                      1.000000
x246x117x1                    1.000000
x246x53x2                     1.000000
x216x0x3                      2.000000
x252x0x1                      1.000000
x252x0x3                      1.000000
x34x0x1                       1.000000
x34x0x2                       1.000000
x201x229x1                    2.000000
x250x0x3                      2.000000
x114x0x2                      2.000000
x96x0x1                       2.000000
x229x0x1                      2.000000
x117x0x1                      1.000000
x117x0x3                      1.000000
x53x0x2                       1.000000
x53x0x3                       1.000000
s199                          3.991260
z199z113z1                    1.000000
z199z121z1                    1.000000
z199z184z1                    1.000000
z199z246z1                    1.000000
z199z201z1                    1.000000
z199z96z1                     1.000000
z199z229z1                    1.000000
s171                          5.093870
z171z201z1                    1.000000
z171z96z1                     1.000000
z171z229z1                    1.000000
s221                          4.591990
z221z4z3                      1.000000
s155                          5.025260
z155z252z3                    1.000000
z155z250z3                    1.000000
s226                          5.135940
z226z184z1                    1.000000
z226z216z3                    1.000000
s262                          5.164910
z262z184z1                    1.000000
z262z190z2                    1.000000
s43                           5.031720
z43z110z2                     1.000000
z43z246z2                     1.000000
z43z114z2                     1.000000
z43z63z2                      1.000000
s271                          5.205230
z271z34z2                     1.000000
s5                            5.259260
z5z110z2                      1.000000
z5z250z3                      1.000000
s243                          5.238220
z243z114z2                    1.000000
s41                           5.259700
z41z184z1                     1.000000
z41z96z1                      1.000000
s64                           5.186070
z64z190z3                     1.000000
z64z216z3                     1.000000
s77                           5.217810
z77z252z1                     1.000000
z77z34z1                      1.000000
s185                          5.077260
z185z57z2                     1.000000
z4z117z3                      1.000000
z4z53z3                       1.000000
z121z229z1                    1.000000
z246z117z1                    1.000000
z246z53z2                     1.000000
z201z229z1                    1.000000
All other variables in the range 1-2630 are 0.
